
===== New CPLEX run =====
Instance: /home/yorig/tuner/mpils-tests/instances/miplib/medium-1/momentum1.mps
Config: /scratch/yorig/mpils-results-grid-ticks-10000/medium-1/16proc/seed-5/6_momentum1_seed-5_20260425_215516/iterated_local_search/run_2_worker_11/ils_config_13031658737605585516.prm
========================

Selected objective sense:  MINIMIZE
Selected objective  name:  MINIMIZE
Selected RHS        name:  rhs
Selected bound      name:  bnd
Version identifier: 22.1.2.0 | 2024-11-26 | 0edbb82fd
CPXPARAM_Threads                                 8
CPXPARAM_Parallel                                1
CPXPARAM_MIP_Strategy_Branch                     -1
CPXPARAM_MIP_Cuts_Cliques                        1
CPXPARAM_MIP_Cuts_FlowCovers                     1
CPXPARAM_MIP_Cuts_Implied                        -1
CPXPARAM_MIP_Limits_GomoryCand                   25
CPXPARAM_MIP_Cuts_Gomory                         1
CPXPARAM_MIP_Cuts_PathCut                        -1
CPXPARAM_MIP_Cuts_MIRCut                         2
CPXPARAM_Emphasis_MIP                            3
CPXPARAM_DetTimeLimit                            10000
Tried aggregator 3 times.
MIP Presolve eliminated 30810 rows and 1362 columns.
MIP Presolve modified 22293 coefficients.
Aggregator did 232 substitutions.
Reduced MIP has 11638 rows, 3580 columns, and 46688 nonzeros.
Reduced MIP has 1625 binaries, 0 generals, 0 SOSs, and 0 indicators.
Presolve time = 0.10 sec. (139.58 ticks)
Found incumbent of value 533875.101733 after 0.12 sec. (154.72 ticks)
Probing fixed 392 vars, tightened 1078 bounds.
Probing changed sense of 113 constraints.
Probing time = 0.08 sec. (90.30 ticks)
Cover probing fixed 0 vars, tightened 267 bounds.
Tried aggregator 2 times.
MIP Presolve eliminated 3295 rows and 847 columns.
MIP Presolve modified 7082 coefficients.
Aggregator did 11 substitutions.
Reduced MIP has 8332 rows, 2722 columns, and 31418 nonzeros.
Reduced MIP has 1168 binaries, 0 generals, 0 SOSs, and 0 indicators.
Presolve time = 0.04 sec. (44.43 ticks)
Probing fixed 1 vars, tightened 256 bounds.
Probing time = 0.04 sec. (44.20 ticks)
Cover probing fixed 0 vars, tightened 190 bounds.
Tried aggregator 1 time.
Detecting symmetries...
MIP Presolve eliminated 26 rows and 2 columns.
MIP Presolve modified 5059 coefficients.
Reduced MIP has 8306 rows, 2720 columns, and 31355 nonzeros.
Reduced MIP has 1167 binaries, 0 generals, 0 SOSs, and 0 indicators.
Presolve time = 0.02 sec. (22.06 ticks)
Probing fixed 0 vars, tightened 89 bounds.
Probing time = 0.04 sec. (39.92 ticks)
Cover probing fixed 0 vars, tightened 147 bounds.
Probing added 13032 nonzeros.
Clique table members: 6596.
MIP emphasis: best bound.
MIP search method: dynamic search.
Parallel mode: deterministic, using up to 8 threads.
Root relaxation solution time = 0.25 sec. (247.03 ticks)

        Nodes                                         Cuts/
   Node  Left     Objective  IInf  Best Integer    Best Bound    ItCnt     Gap

*     0+    0                       533875.1017    44880.8652            91.59%
*     0+    0                       533847.9795    44880.8652            91.59%
*     0+    0                       333826.8649    44880.8652            86.56%
*     0+    0                       333809.0666    44880.8652            86.55%
      0     0    79213.2171   240   333809.0666    79213.2171     1586   76.27%
      0     0    96257.4303   312   333809.0666     Cuts: 192     2129   71.16%
      0     0    96259.5917   300   333809.0666     Cuts: 125     2431   71.16%
      0     0    96260.5830   329   333809.0666      Cuts: 77     2639   71.16%
*     0+    0                       320973.9980    96260.5830            70.01%
      0     0  -1.00000e+75     0   320973.9980    96260.5830     2639   70.01%
      0     0    96261.0227   307   320973.9980      Cuts: 18     2696   70.01%
      0     0    96273.3248   280   320973.9980      Cuts: 95     3072   70.01%
Detecting symmetries...
      0     0    96275.9734   299   320973.9980     Cuts: 125     3334   70.01%
Detecting symmetries...
      0     2    96275.9734   299   320973.9980    96275.9734     3334   70.01%
Elapsed time = 5.80 sec. (9378.65 ticks, tree = 0.02 MB, solutions = 5)
      2     3    96350.0388   261   320973.9980    96276.5170     3834   70.00%

Clique cuts applied:  110
Cover cuts applied:  2
Flow cuts applied:  53
Mixed integer rounding cuts applied:  311
Zero-half cuts applied:  23
Gomory fractional cuts applied:  3

Root node processing (before b&c):
  Real time             =    5.76 sec. (9328.47 ticks)
Parallel b&c, 8 threads:
  Real time             =    0.43 sec. (678.83 ticks)
  Sync time (average)   =    0.27 sec.
  Wait time (average)   =    0.00 sec.
                          ------------
Total (root+branch&cut) =    6.19 sec. (10007.30 ticks)
Gap: 70%
Upper bound: 320974
Lower bound: 96294.4
End of CPLEX run. Time: 6.19028 seconds

===== New CPLEX run =====
Instance: /home/yorig/tuner/mpils-tests/instances/miplib/medium-1/momentum1.mps
Config: /scratch/yorig/mpils-results-grid-ticks-10000/medium-1/16proc/seed-5/6_momentum1_seed-5_20260425_215516/iterated_local_search/run_2_worker_11/ils_config_5369076496102763033.prm
========================

Selected objective sense:  MINIMIZE
Selected objective  name:  MINIMIZE
Selected RHS        name:  rhs
Selected bound      name:  bnd
Version identifier: 22.1.2.0 | 2024-11-26 | 0edbb82fd
CPXPARAM_Threads                                 8
CPXPARAM_Parallel                                1
CPXPARAM_MIP_Strategy_Branch                     -1
CPXPARAM_MIP_Cuts_Cliques                        2
CPXPARAM_MIP_Cuts_FlowCovers                     1
CPXPARAM_MIP_Cuts_Implied                        -1
CPXPARAM_MIP_Limits_GomoryCand                   25
CPXPARAM_MIP_Cuts_Gomory                         1
CPXPARAM_MIP_Cuts_PathCut                        -1
CPXPARAM_MIP_Cuts_MIRCut                         2
CPXPARAM_Emphasis_MIP                            3
CPXPARAM_DetTimeLimit                            10000
Tried aggregator 3 times.
MIP Presolve eliminated 30810 rows and 1362 columns.
MIP Presolve modified 22293 coefficients.
Aggregator did 232 substitutions.
Reduced MIP has 11638 rows, 3580 columns, and 46688 nonzeros.
Reduced MIP has 1625 binaries, 0 generals, 0 SOSs, and 0 indicators.
Presolve time = 0.10 sec. (139.58 ticks)
Found incumbent of value 533875.101733 after 0.12 sec. (154.72 ticks)
Probing fixed 392 vars, tightened 1078 bounds.
Probing changed sense of 113 constraints.
Probing time = 0.08 sec. (90.30 ticks)
Cover probing fixed 0 vars, tightened 267 bounds.
Tried aggregator 2 times.
MIP Presolve eliminated 3295 rows and 847 columns.
MIP Presolve modified 7082 coefficients.
Aggregator did 11 substitutions.
Reduced MIP has 8332 rows, 2722 columns, and 31418 nonzeros.
Reduced MIP has 1168 binaries, 0 generals, 0 SOSs, and 0 indicators.
Presolve time = 0.04 sec. (44.43 ticks)
Probing fixed 1 vars, tightened 256 bounds.
Probing time = 0.04 sec. (44.20 ticks)
Cover probing fixed 0 vars, tightened 190 bounds.
Tried aggregator 1 time.
Detecting symmetries...
MIP Presolve eliminated 26 rows and 2 columns.
MIP Presolve modified 5059 coefficients.
Reduced MIP has 8306 rows, 2720 columns, and 31355 nonzeros.
Reduced MIP has 1167 binaries, 0 generals, 0 SOSs, and 0 indicators.
Presolve time = 0.02 sec. (22.06 ticks)
Probing fixed 0 vars, tightened 89 bounds.
Probing time = 0.04 sec. (39.92 ticks)
Cover probing fixed 0 vars, tightened 147 bounds.
Probing added 13032 nonzeros.
Clique table members: 6596.
MIP emphasis: best bound.
MIP search method: dynamic search.
Parallel mode: deterministic, using up to 8 threads.
Root relaxation solution time = 0.24 sec. (247.03 ticks)

        Nodes                                         Cuts/
   Node  Left     Objective  IInf  Best Integer    Best Bound    ItCnt     Gap

*     0+    0                       533875.1017    44880.8652            91.59%
*     0+    0                       533847.9795    44880.8652            91.59%
*     0+    0                       333826.8649    44880.8652            86.56%
*     0+    0                       333809.0666    44880.8652            86.55%
      0     0    79213.2171   240   333809.0666    79213.2171     1586   76.27%
      0     0    96257.4303   312   333809.0666     Cuts: 192     2129   71.16%
      0     0    96259.5917   300   333809.0666     Cuts: 125     2431   71.16%
      0     0    96260.5830   329   333809.0666      Cuts: 77     2639   71.16%
*     0+    0                       320973.9980    96260.5830            70.01%
      0     0  -1.00000e+75     0   320973.9980    96260.5830     2639   70.01%
      0     0    96261.0227   307   320973.9980      Cuts: 18     2696   70.01%
      0     0    96273.3248   280   320973.9980      Cuts: 95     3072   70.01%
Detecting symmetries...
      0     0    96275.9734   299   320973.9980     Cuts: 125     3334   70.01%
Detecting symmetries...
      0     2    96275.9734   299   320973.9980    96275.9734     3334   70.01%
Elapsed time = 5.87 sec. (9378.65 ticks, tree = 0.02 MB, solutions = 5)
      4     4    96287.9703   265   320973.9980    96276.5170     3740   70.00%
      7     6    96385.3669   264   320973.9980    96277.3703     4256   70.00%

Clique cuts applied:  113
Cover cuts applied:  2
Flow cuts applied:  53
Mixed integer rounding cuts applied:  122
Zero-half cuts applied:  23
Gomory fractional cuts applied:  3

Root node processing (before b&c):
  Real time             =    5.83 sec. (9328.65 ticks)
Parallel b&c, 8 threads:
  Real time             =    0.46 sec. (683.77 ticks)
  Sync time (average)   =    0.19 sec.
  Wait time (average)   =    0.00 sec.
                          ------------
Total (root+branch&cut) =    6.29 sec. (10012.42 ticks)
Gap: 70%
Upper bound: 320974
Lower bound: 96288
End of CPLEX run. Time: 6.28937 seconds

===== New CPLEX run =====
Instance: /home/yorig/tuner/mpils-tests/instances/miplib/medium-1/momentum1.mps
Config: /scratch/yorig/mpils-results-grid-ticks-10000/medium-1/16proc/seed-5/6_momentum1_seed-5_20260425_215516/iterated_local_search/run_2_worker_11/ils_config_11131930211120661622.prm
========================

Selected objective sense:  MINIMIZE
Selected objective  name:  MINIMIZE
Selected RHS        name:  rhs
Selected bound      name:  bnd
Version identifier: 22.1.2.0 | 2024-11-26 | 0edbb82fd
CPXPARAM_Threads                                 8
CPXPARAM_Parallel                                1
CPXPARAM_MIP_Strategy_Branch                     -1
CPXPARAM_MIP_Cuts_Cliques                        1
CPXPARAM_MIP_Cuts_FlowCovers                     1
CPXPARAM_MIP_Cuts_Implied                        -1
CPXPARAM_MIP_Limits_GomoryCand                   25
CPXPARAM_MIP_Cuts_Gomory                         1
CPXPARAM_MIP_Cuts_PathCut                        2
CPXPARAM_MIP_Cuts_MIRCut                         2
CPXPARAM_Emphasis_MIP                            3
CPXPARAM_DetTimeLimit                            10000
Tried aggregator 3 times.
MIP Presolve eliminated 30810 rows and 1362 columns.
MIP Presolve modified 22293 coefficients.
Aggregator did 232 substitutions.
Reduced MIP has 11638 rows, 3580 columns, and 46688 nonzeros.
Reduced MIP has 1625 binaries, 0 generals, 0 SOSs, and 0 indicators.
Presolve time = 0.10 sec. (139.58 ticks)
Found incumbent of value 533875.101733 after 0.12 sec. (154.72 ticks)
Probing fixed 392 vars, tightened 1078 bounds.
Probing changed sense of 113 constraints.
Probing time = 0.08 sec. (90.30 ticks)
Cover probing fixed 0 vars, tightened 267 bounds.
Tried aggregator 2 times.
MIP Presolve eliminated 3295 rows and 847 columns.
MIP Presolve modified 7082 coefficients.
Aggregator did 11 substitutions.
Reduced MIP has 8332 rows, 2722 columns, and 31418 nonzeros.
Reduced MIP has 1168 binaries, 0 generals, 0 SOSs, and 0 indicators.
Presolve time = 0.04 sec. (44.43 ticks)
Probing fixed 1 vars, tightened 256 bounds.
Probing time = 0.04 sec. (44.20 ticks)
Cover probing fixed 0 vars, tightened 190 bounds.
Tried aggregator 1 time.
Detecting symmetries...
MIP Presolve eliminated 26 rows and 2 columns.
MIP Presolve modified 5059 coefficients.
Reduced MIP has 8306 rows, 2720 columns, and 31355 nonzeros.
Reduced MIP has 1167 binaries, 0 generals, 0 SOSs, and 0 indicators.
Presolve time = 0.02 sec. (22.06 ticks)
Probing fixed 0 vars, tightened 89 bounds.
Probing time = 0.04 sec. (39.92 ticks)
Cover probing fixed 0 vars, tightened 147 bounds.
Probing added 13032 nonzeros.
Clique table members: 6596.
MIP emphasis: best bound.
MIP search method: dynamic search.
Parallel mode: deterministic, using up to 8 threads.
Root relaxation solution time = 0.25 sec. (247.03 ticks)

        Nodes                                         Cuts/
   Node  Left     Objective  IInf  Best Integer    Best Bound    ItCnt     Gap

*     0+    0                       533875.1017    44880.8652            91.59%
*     0+    0                       533847.9795    44880.8652            91.59%
*     0+    0                       333826.8649    44880.8652            86.56%
*     0+    0                       333809.0666    44880.8652            86.55%
      0     0    79213.2171   240   333809.0666    79213.2171     1586   76.27%
      0     0    96257.4303   312   333809.0666     Cuts: 192     2129   71.16%
      0     0    96259.5917   300   333809.0666     Cuts: 125     2431   71.16%
      0     0    96260.5830   329   333809.0666      Cuts: 77     2639   71.16%
*     0+    0                       320973.9980    96260.5830            70.01%
      0     0  -1.00000e+75     0   320973.9980    96260.5830     2639   70.01%
      0     0    96261.0227   307   320973.9980      Cuts: 18     2696   70.01%
      0     0    96273.3248   280   320973.9980      Cuts: 95     3072   70.01%
Detecting symmetries...
      0     0    96275.9734   299   320973.9980     Cuts: 125     3334   70.01%
Detecting symmetries...
      0     2    96275.9734   299   320973.9980    96275.9734     3334   70.01%
Elapsed time = 5.84 sec. (9378.96 ticks, tree = 0.02 MB, solutions = 5)
      2     3    96350.0388   261   320973.9980    96276.5170     3834   70.00%

Clique cuts applied:  110
Cover cuts applied:  2
Flow cuts applied:  53
Mixed integer rounding cuts applied:  311
Flow path cuts applied:  0
Zero-half cuts applied:  23
Gomory fractional cuts applied:  3

Root node processing (before b&c):
  Real time             =    5.80 sec. (9328.79 ticks)
Parallel b&c, 8 threads:
  Real time             =    0.45 sec. (678.44 ticks)
  Sync time (average)   =    0.28 sec.
  Wait time (average)   =    0.00 sec.
                          ------------
Total (root+branch&cut) =    6.25 sec. (10007.23 ticks)
Gap: 70%
Upper bound: 320974
Lower bound: 96294.4
End of CPLEX run. Time: 6.2506 seconds

===== New CPLEX run =====
Instance: /home/yorig/tuner/mpils-tests/instances/miplib/medium-1/momentum1.mps
Config: /scratch/yorig/mpils-results-grid-ticks-10000/medium-1/16proc/seed-5/6_momentum1_seed-5_20260425_215516/iterated_local_search/run_2_worker_11/ils_config_15802716359166109644.prm
========================

Selected objective sense:  MINIMIZE
Selected objective  name:  MINIMIZE
Selected RHS        name:  rhs
Selected bound      name:  bnd
Version identifier: 22.1.2.0 | 2024-11-26 | 0edbb82fd
CPXPARAM_Threads                                 8
CPXPARAM_Parallel                                1
CPXPARAM_MIP_Strategy_Branch                     -1
CPXPARAM_MIP_Cuts_Cliques                        1
CPXPARAM_MIP_Cuts_FlowCovers                     1
CPXPARAM_MIP_Cuts_Implied                        -1
CPXPARAM_MIP_Limits_GomoryCand                   100
CPXPARAM_MIP_Cuts_Gomory                         1
CPXPARAM_MIP_Cuts_PathCut                        -1
CPXPARAM_MIP_Cuts_MIRCut                         2
CPXPARAM_Emphasis_MIP                            3
CPXPARAM_DetTimeLimit                            10000
Tried aggregator 3 times.
MIP Presolve eliminated 30810 rows and 1362 columns.
MIP Presolve modified 22293 coefficients.
Aggregator did 232 substitutions.
Reduced MIP has 11638 rows, 3580 columns, and 46688 nonzeros.
Reduced MIP has 1625 binaries, 0 generals, 0 SOSs, and 0 indicators.
Presolve time = 0.10 sec. (139.58 ticks)
Found incumbent of value 533875.101733 after 0.12 sec. (154.72 ticks)
Probing fixed 392 vars, tightened 1078 bounds.
Probing changed sense of 113 constraints.
Probing time = 0.08 sec. (90.30 ticks)
Cover probing fixed 0 vars, tightened 267 bounds.
Tried aggregator 2 times.
MIP Presolve eliminated 3295 rows and 847 columns.
MIP Presolve modified 7082 coefficients.
Aggregator did 11 substitutions.
Reduced MIP has 8332 rows, 2722 columns, and 31418 nonzeros.
Reduced MIP has 1168 binaries, 0 generals, 0 SOSs, and 0 indicators.
Presolve time = 0.04 sec. (44.43 ticks)
Probing fixed 1 vars, tightened 256 bounds.
Probing time = 0.04 sec. (44.20 ticks)
Cover probing fixed 0 vars, tightened 190 bounds.
Tried aggregator 1 time.
Detecting symmetries...
MIP Presolve eliminated 26 rows and 2 columns.
MIP Presolve modified 5059 coefficients.
Reduced MIP has 8306 rows, 2720 columns, and 31355 nonzeros.
Reduced MIP has 1167 binaries, 0 generals, 0 SOSs, and 0 indicators.
Presolve time = 0.02 sec. (22.06 ticks)
Probing fixed 0 vars, tightened 89 bounds.
Probing time = 0.04 sec. (39.92 ticks)
Cover probing fixed 0 vars, tightened 147 bounds.
Probing added 13032 nonzeros.
Clique table members: 6596.
MIP emphasis: best bound.
MIP search method: dynamic search.
Parallel mode: deterministic, using up to 8 threads.
Root relaxation solution time = 0.24 sec. (247.03 ticks)

        Nodes                                         Cuts/
   Node  Left     Objective  IInf  Best Integer    Best Bound    ItCnt     Gap

*     0+    0                       533875.1017    44880.8652            91.59%
*     0+    0                       533847.9795    44880.8652            91.59%
*     0+    0                       333826.8649    44880.8652            86.56%
*     0+    0                       333809.0666    44880.8652            86.55%
      0     0    79213.2171   240   333809.0666    79213.2171     1586   76.27%
      0     0    96257.4303   312   333809.0666     Cuts: 193     2112   71.16%
      0     0    96259.5917   300   333809.0666     Cuts: 124     2464   71.16%
      0     0    96260.5797   329   333809.0666      Cuts: 74     2629   71.16%
*     0+    0                       320973.9980    96260.5797            70.01%
      0     0  -1.00000e+75     0   320973.9980    96260.5797     2629   70.01%
      0     0    96261.0218   308   320973.9980      Cuts: 34     2675   70.01%
*     0+    0                       314555.7034    96261.3783            69.40%
      0     0    96273.5863   274   314555.7034      Cuts: 99     3125   69.39%
Detecting symmetries...
      0     0    96276.3210   287   314555.7034      Cuts: 39     3255   69.39%
*     0+    0                       308143.2844    96283.9414            68.75%
      0     0  -1.00000e+75     0   308143.2844    96283.9414     3255   68.75%
Detecting symmetries...
      0     2    96276.3210   287   308143.2844    96283.9414     3255   68.75%
Elapsed time = 6.17 sec. (9953.41 ticks, tree = 0.02 MB, solutions = 7)

Clique cuts applied:  113
Cover cuts applied:  2
Flow cuts applied:  57
Mixed integer rounding cuts applied:  37
Zero-half cuts applied:  34
Gomory fractional cuts applied:  4

Root node processing (before b&c):
  Real time             =    6.14 sec. (9904.68 ticks)
Parallel b&c, 8 threads:
  Real time             =    0.07 sec. (99.41 ticks)
  Sync time (average)   =    0.05 sec.
  Wait time (average)   =    0.00 sec.
                          ------------
Total (root+branch&cut) =    6.21 sec. (10004.09 ticks)
Gap: 68.75%
Upper bound: 308143
Lower bound: 96283.9
End of CPLEX run. Time: 6.20726 seconds

===== New CPLEX run =====
Instance: /home/yorig/tuner/mpils-tests/instances/miplib/medium-1/momentum1.mps
Config: /scratch/yorig/mpils-results-grid-ticks-10000/medium-1/16proc/seed-5/6_momentum1_seed-5_20260425_215516/iterated_local_search/run_2_worker_11/ils_config_8075053648864852125.prm
========================

Selected objective sense:  MINIMIZE
Selected objective  name:  MINIMIZE
Selected RHS        name:  rhs
Selected bound      name:  bnd
Version identifier: 22.1.2.0 | 2024-11-26 | 0edbb82fd
CPXPARAM_Threads                                 8
CPXPARAM_Parallel                                1
CPXPARAM_MIP_Strategy_Branch                     -1
CPXPARAM_MIP_Cuts_Cliques                        1
CPXPARAM_MIP_Cuts_FlowCovers                     1
CPXPARAM_MIP_Cuts_Implied                        1
CPXPARAM_MIP_Limits_GomoryCand                   100
CPXPARAM_MIP_Cuts_Gomory                         1
CPXPARAM_MIP_Cuts_PathCut                        -1
CPXPARAM_MIP_Cuts_MIRCut                         2
CPXPARAM_Emphasis_MIP                            3
CPXPARAM_DetTimeLimit                            10000
Tried aggregator 3 times.
MIP Presolve eliminated 30810 rows and 1362 columns.
MIP Presolve modified 22293 coefficients.
Aggregator did 232 substitutions.
Reduced MIP has 11638 rows, 3580 columns, and 46688 nonzeros.
Reduced MIP has 1625 binaries, 0 generals, 0 SOSs, and 0 indicators.
Presolve time = 0.11 sec. (139.58 ticks)
Found incumbent of value 533875.101733 after 0.12 sec. (154.72 ticks)
Probing fixed 392 vars, tightened 1078 bounds.
Probing changed sense of 113 constraints.
Probing time = 0.08 sec. (90.30 ticks)
Cover probing fixed 0 vars, tightened 267 bounds.
Tried aggregator 2 times.
MIP Presolve eliminated 3295 rows and 847 columns.
MIP Presolve modified 7082 coefficients.
Aggregator did 11 substitutions.
Reduced MIP has 8332 rows, 2722 columns, and 31418 nonzeros.
Reduced MIP has 1168 binaries, 0 generals, 0 SOSs, and 0 indicators.
Presolve time = 0.04 sec. (44.43 ticks)
Probing fixed 1 vars, tightened 256 bounds.
Probing time = 0.04 sec. (44.20 ticks)
Cover probing fixed 0 vars, tightened 190 bounds.
Tried aggregator 1 time.
Detecting symmetries...
MIP Presolve eliminated 26 rows and 2 columns.
MIP Presolve modified 5059 coefficients.
Reduced MIP has 8306 rows, 2720 columns, and 31355 nonzeros.
Reduced MIP has 1167 binaries, 0 generals, 0 SOSs, and 0 indicators.
Presolve time = 0.02 sec. (22.06 ticks)
Probing fixed 0 vars, tightened 89 bounds.
Probing time = 0.04 sec. (39.92 ticks)
Cover probing fixed 0 vars, tightened 147 bounds.
Probing added 13032 nonzeros.
Clique table members: 6596.
MIP emphasis: best bound.
MIP search method: dynamic search.
Parallel mode: deterministic, using up to 8 threads.
Root relaxation solution time = 0.24 sec. (247.03 ticks)

        Nodes                                         Cuts/
   Node  Left     Objective  IInf  Best Integer    Best Bound    ItCnt     Gap

*     0+    0                       533875.1017    44880.8652            91.59%
*     0+    0                       533847.9795    44880.8652            91.59%
*     0+    0                       333826.8649    44880.8652            86.56%
*     0+    0                       333809.0666    44880.8652            86.55%
      0     0    79213.2171   240   333809.0666    79213.2171     1586   76.27%
      0     0    96257.4352   306   333809.0666     Cuts: 194     2110   71.16%
      0     0    96259.5965   300   333809.0666     Cuts: 129     2448   71.16%
      0     0    96260.5878   324   333809.0666      Cuts: 80     2608   71.16%
*     0+    0                       320966.0440    96260.5878            70.01%
      0     0    96261.1760   305   320966.0440      Cuts: 20     2664   70.01%
      0     0    96273.3395   277   320966.0440     Cuts: 135     3008   70.00%
Detecting symmetries...
      0     0    96275.9742   297   320966.0440     Cuts: 102     3254   70.00%
*     0+    0                       314524.2626    96275.9742            69.39%
      0     0  -1.00000e+75     0   314524.2626    96275.9742     3254   69.39%

Clique cuts applied:  135
Cover cuts applied:  2
Implied bound cuts applied:  5
Flow cuts applied:  55
Mixed integer rounding cuts applied:  39
Zero-half cuts applied:  18
Gomory fractional cuts applied:  4

Root node processing (before b&c):
  Real time             =    6.18 sec. (10009.66 ticks)
Parallel b&c, 8 threads:
  Real time             =    0.00 sec. (0.00 ticks)
  Sync time (average)   =    0.00 sec.
  Wait time (average)   =    0.00 sec.
                          ------------
Total (root+branch&cut) =    6.18 sec. (10009.66 ticks)
Gap: 69.39%
Upper bound: 314524
Lower bound: 96276
End of CPLEX run. Time: 6.18293 seconds

===== New CPLEX run =====
Instance: /home/yorig/tuner/mpils-tests/instances/miplib/medium-1/momentum1.mps
Config: /scratch/yorig/mpils-results-grid-ticks-10000/medium-1/16proc/seed-5/6_momentum1_seed-5_20260425_215516/iterated_local_search/run_2_worker_11/ils_config_9760735286812551776.prm
========================

Selected objective sense:  MINIMIZE
Selected objective  name:  MINIMIZE
Selected RHS        name:  rhs
Selected bound      name:  bnd
Version identifier: 22.1.2.0 | 2024-11-26 | 0edbb82fd
CPXPARAM_Threads                                 8
CPXPARAM_Parallel                                1
CPXPARAM_MIP_Strategy_Branch                     -1
CPXPARAM_MIP_Cuts_Cliques                        1
CPXPARAM_MIP_Cuts_FlowCovers                     -1
CPXPARAM_MIP_Cuts_Implied                        -1
CPXPARAM_MIP_Limits_GomoryCand                   100
CPXPARAM_MIP_Cuts_Gomory                         1
CPXPARAM_MIP_Cuts_PathCut                        -1
CPXPARAM_MIP_Cuts_MIRCut                         2
CPXPARAM_Emphasis_MIP                            3
CPXPARAM_DetTimeLimit                            10000
Tried aggregator 3 times.
MIP Presolve eliminated 30810 rows and 1362 columns.
MIP Presolve modified 22293 coefficients.
Aggregator did 232 substitutions.
Reduced MIP has 11638 rows, 3580 columns, and 46688 nonzeros.
Reduced MIP has 1625 binaries, 0 generals, 0 SOSs, and 0 indicators.
Presolve time = 0.11 sec. (139.58 ticks)
Found incumbent of value 533875.101733 after 0.12 sec. (154.72 ticks)
Probing fixed 392 vars, tightened 1078 bounds.
Probing changed sense of 113 constraints.
Probing time = 0.08 sec. (90.30 ticks)
Cover probing fixed 0 vars, tightened 267 bounds.
Tried aggregator 2 times.
MIP Presolve eliminated 3295 rows and 847 columns.
MIP Presolve modified 7082 coefficients.
Aggregator did 11 substitutions.
Reduced MIP has 8332 rows, 2722 columns, and 31418 nonzeros.
Reduced MIP has 1168 binaries, 0 generals, 0 SOSs, and 0 indicators.
Presolve time = 0.04 sec. (44.43 ticks)
Probing fixed 1 vars, tightened 256 bounds.
Probing time = 0.04 sec. (44.20 ticks)
Cover probing fixed 0 vars, tightened 190 bounds.
Tried aggregator 1 time.
Detecting symmetries...
MIP Presolve eliminated 26 rows and 2 columns.
MIP Presolve modified 5059 coefficients.
Reduced MIP has 8306 rows, 2720 columns, and 31355 nonzeros.
Reduced MIP has 1167 binaries, 0 generals, 0 SOSs, and 0 indicators.
Presolve time = 0.02 sec. (22.06 ticks)
Probing fixed 0 vars, tightened 89 bounds.
Probing time = 0.04 sec. (39.92 ticks)
Cover probing fixed 0 vars, tightened 147 bounds.
Probing added 13032 nonzeros.
Clique table members: 6596.
MIP emphasis: best bound.
MIP search method: dynamic search.
Parallel mode: deterministic, using up to 8 threads.
Root relaxation solution time = 0.24 sec. (247.03 ticks)

        Nodes                                         Cuts/
   Node  Left     Objective  IInf  Best Integer    Best Bound    ItCnt     Gap

*     0+    0                       533875.1017    44880.8652            91.59%
*     0+    0                       533847.9795    44880.8652            91.59%
*     0+    0                       333826.8649    44880.8652            86.56%
*     0+    0                       333809.0666    44880.8652            86.55%
      0     0    79213.2171   240   333809.0666    79213.2171     1586   76.27%
      0     0    96256.8637   317   333809.0666     Cuts: 152     2124   71.16%
      0     0    96258.2794   306   333809.0666      Cuts: 89     2381   71.16%
*     0+    0                       327379.6751    96258.2794            70.60%
      0     0    96259.2974   322   327379.6751      Cuts: 39     2624   70.60%
*     0+    0                       320950.5648    96259.2974            70.01%
      0     0  -1.00000e+75     0   320950.5648    96259.2974     2624   70.01%
      0     0    96259.6673   324   320950.5648      Cuts: 60     2733   70.00%
*     0+    0                       320950.5648    96270.0893            70.00%
      0     0  -1.00000e+75     0   320950.5648    96270.0893     2733   70.00%
Detecting symmetries...
      0     2    96259.6673   324   320950.5648    96270.0893     2733   70.00%
Elapsed time = 5.00 sec. (8242.40 ticks, tree = 0.02 MB, solutions = 7)
      1     3    96260.5909   298   320950.5648    96270.0893     2826   70.00%
      3     4    96279.0690   260   320950.5648    96270.0893     3275   70.00%
      5     6    96289.3784   247   320950.5648    96270.0893     4185   70.00%
*     8+    4                       314537.0685    96273.0410            69.39%
     11     8    96320.8594   271   314537.0685    96273.0410     5075   69.39%
*    16+    6                       295296.6272    96289.4967            67.39%
     16     8    96330.2199   246   295296.6272    96289.4967     5092   67.39%

Clique cuts applied:  51
Cover cuts applied:  2
Mixed integer rounding cuts applied:  562
Zero-half cuts applied:  18
Gomory fractional cuts applied:  4

Root node processing (before b&c):
  Real time             =    4.97 sec. (8203.26 ticks)
Parallel b&c, 8 threads:
  Real time             =    1.17 sec. (1804.96 ticks)
  Sync time (average)   =    0.38 sec.
  Wait time (average)   =    0.00 sec.
                          ------------
Total (root+branch&cut) =    6.14 sec. (10008.22 ticks)
Gap: 67.38%
Upper bound: 295297
Lower bound: 96320.9
End of CPLEX run. Time: 6.13741 seconds
